c A 3SAT instance whose satisfying assignment encodes the subset of [5, 10, 15] that add up to 25
p cnf 188 632
4 49 50 0
4 49 -50 0
4 -49 50 0
4 -49 -50 0
-5 51 52 0
-5 51 -52 0
-5 -51 52 0
-5 -51 -52 0
6 53 54 0
6 53 -54 0
6 -53 54 0
6 -53 -54 0
-7 55 56 0
-7 55 -56 0
-7 -55 56 0
-7 -55 -56 0
8 57 58 0
8 57 -58 0
8 -57 58 0
8 -57 -58 0
-9 59 60 0
-9 59 -60 0
-9 -59 60 0
-9 -59 -60 0
10 61 62 0
10 61 -62 0
10 -61 62 0
10 -61 -62 0
11 63 64 0
11 63 -64 0
11 -63 64 0
11 -63 -64 0
12 65 66 0
12 65 -66 0
12 -65 66 0
12 -65 -66 0
13 67 68 0
13 67 -68 0
13 -67 68 0
13 -67 -68 0
14 69 70 0
14 69 -70 0
14 -69 70 0
14 -69 -70 0
-15 71 72 0
-15 71 -72 0
-15 -71 72 0
-15 -71 -72 0
-16 1 4 0
-16 -1 4 0
-16 1 -4 0
16 -1 -4 0
-17 1 5 0
-17 -1 5 0
-17 1 -5 0
17 -1 -5 0
-18 1 6 0
-18 -1 6 0
-18 1 -6 0
18 -1 -6 0
-19 2 7 0
-19 -2 7 0
-19 2 -7 0
19 -2 -7 0
-20 2 8 0
-20 -2 8 0
-20 2 -8 0
20 -2 -8 0
-21 2 9 0
-21 -2 9 0
-21 2 -9 0
21 -2 -9 0
-22 2 10 0
-22 -2 10 0
-22 2 -10 0
22 -2 -10 0
-23 3 11 0
-23 -3 11 0
-23 3 -11 0
23 -3 -11 0
-24 3 12 0
-24 -3 12 0
-24 3 -12 0
24 -3 -12 0
-25 3 13 0
-25 -3 13 0
-25 3 -13 0
25 -3 -13 0
-26 3 14 0
-26 -3 14 0
-26 3 -14 0
26 -3 -14 0
-27 3 15 0
-27 -3 15 0
-27 3 -15 0
27 -3 -15 0
-28 16 73 0
-28 16 -73 0
28 -16 74 0
28 -16 -74 0
-29 17 75 0
-29 17 -75 0
29 -17 76 0
29 -17 -76 0
-30 18 77 0
-30 18 -77 0
30 -18 78 0
30 -18 -78 0
-31 28 19 0
31 -28 19 0
31 28 -19 0
-31 -28 -19 0
-36 28 19 0
-36 -28 19 0
-36 28 -19 0
36 -28 -19 0
-32 36 79 0
-79 29 20 0
79 -29 20 0
79 29 -20 0
79 -29 -20 0
32 -36 80 0
-80 29 20 0
80 -29 20 0
80 29 -20 0
80 -29 -20 0
32 36 81 0
81 29 20 0
-81 -29 20 0
81 29 -20 0
81 -29 -20 0
-32 -36 82 0
82 29 20 0
-82 -29 20 0
82 29 -20 0
82 -29 -20 0
32 36 83 0
83 29 20 0
83 -29 20 0
-83 29 -20 0
83 -29 -20 0
-32 -36 84 0
84 29 20 0
84 -29 20 0
-84 29 -20 0
84 -29 -20 0
-32 36 85 0
85 29 20 0
85 -29 20 0
85 29 -20 0
-85 -29 -20 0
32 -36 86 0
86 29 20 0
86 -29 20 0
86 29 -20 0
-86 -29 -20 0
-37 29 87 0
-87 20 36 0
87 -20 36 0
87 20 -36 0
87 -20 -36 0
-37 -29 88 0
-88 20 36 0
88 -20 36 0
88 20 -36 0
88 -20 -36 0
-37 29 89 0
89 20 36 0
-89 -20 36 0
89 20 -36 0
89 -20 -36 0
37 -29 90 0
90 20 36 0
-90 -20 36 0
90 20 -36 0
90 -20 -36 0
-37 29 91 0
91 20 36 0
91 -20 36 0
-91 20 -36 0
91 -20 -36 0
37 -29 92 0
92 20 36 0
92 -20 36 0
-92 20 -36 0
92 -20 -36 0
37 29 93 0
93 20 36 0
93 -20 36 0
93 20 -36 0
-93 -20 -36 0
37 -29 94 0
94 20 36 0
94 -20 36 0
94 20 -36 0
-94 -20 -36 0
-33 37 95 0
-95 30 21 0
95 -30 21 0
95 30 -21 0
95 -30 -21 0
33 -37 96 0
-96 30 21 0
96 -30 21 0
96 30 -21 0
96 -30 -21 0
33 37 97 0
97 30 21 0
-97 -30 21 0
97 30 -21 0
97 -30 -21 0
-33 -37 98 0
98 30 21 0
-98 -30 21 0
98 30 -21 0
98 -30 -21 0
33 37 99 0
99 30 21 0
99 -30 21 0
-99 30 -21 0
99 -30 -21 0
-33 -37 100 0
100 30 21 0
100 -30 21 0
-100 30 -21 0
100 -30 -21 0
-33 37 101 0
101 30 21 0
101 -30 21 0
101 30 -21 0
-101 -30 -21 0
33 -37 102 0
102 30 21 0
102 -30 21 0
102 30 -21 0
-102 -30 -21 0
-38 30 103 0
-103 21 37 0
103 -21 37 0
103 21 -37 0
103 -21 -37 0
-38 -30 104 0
-104 21 37 0
104 -21 37 0
104 21 -37 0
104 -21 -37 0
-38 30 105 0
105 21 37 0
-105 -21 37 0
105 21 -37 0
105 -21 -37 0
38 -30 106 0
106 21 37 0
-106 -21 37 0
106 21 -37 0
106 -21 -37 0
-38 30 107 0
107 21 37 0
107 -21 37 0
-107 21 -37 0
107 -21 -37 0
38 -30 108 0
108 21 37 0
108 -21 37 0
-108 21 -37 0
108 -21 -37 0
38 30 109 0
109 21 37 0
109 -21 37 0
109 21 -37 0
-109 -21 -37 0
38 -30 110 0
110 21 37 0
110 -21 37 0
110 21 -37 0
-110 -21 -37 0
-34 38 111 0
-34 38 -111 0
34 -38 112 0
34 -38 -112 0
-35 113 114 0
-35 113 -114 0
-35 -113 114 0
-35 -113 -114 0
-39 31 23 0
39 -31 23 0
39 31 -23 0
-39 -31 -23 0
-44 31 23 0
-44 -31 23 0
-44 31 -23 0
44 -31 -23 0
-40 44 115 0
-115 32 24 0
115 -32 24 0
115 32 -24 0
115 -32 -24 0
40 -44 116 0
-116 32 24 0
116 -32 24 0
116 32 -24 0
116 -32 -24 0
40 44 117 0
117 32 24 0
-117 -32 24 0
117 32 -24 0
117 -32 -24 0
-40 -44 118 0
118 32 24 0
-118 -32 24 0
118 32 -24 0
118 -32 -24 0
40 44 119 0
119 32 24 0
119 -32 24 0
-119 32 -24 0
119 -32 -24 0
-40 -44 120 0
120 32 24 0
120 -32 24 0
-120 32 -24 0
120 -32 -24 0
-40 44 121 0
121 32 24 0
121 -32 24 0
121 32 -24 0
-121 -32 -24 0
40 -44 122 0
122 32 24 0
122 -32 24 0
122 32 -24 0
-122 -32 -24 0
-45 32 123 0
-123 24 44 0
123 -24 44 0
123 24 -44 0
123 -24 -44 0
-45 -32 124 0
-124 24 44 0
124 -24 44 0
124 24 -44 0
124 -24 -44 0
-45 32 125 0
125 24 44 0
-125 -24 44 0
125 24 -44 0
125 -24 -44 0
45 -32 126 0
126 24 44 0
-126 -24 44 0
126 24 -44 0
126 -24 -44 0
-45 32 127 0
127 24 44 0
127 -24 44 0
-127 24 -44 0
127 -24 -44 0
45 -32 128 0
128 24 44 0
128 -24 44 0
-128 24 -44 0
128 -24 -44 0
45 32 129 0
129 24 44 0
129 -24 44 0
129 24 -44 0
-129 -24 -44 0
45 -32 130 0
130 24 44 0
130 -24 44 0
130 24 -44 0
-130 -24 -44 0
-41 45 131 0
-131 33 25 0
131 -33 25 0
131 33 -25 0
131 -33 -25 0
41 -45 132 0
-132 33 25 0
132 -33 25 0
132 33 -25 0
132 -33 -25 0
41 45 133 0
133 33 25 0
-133 -33 25 0
133 33 -25 0
133 -33 -25 0
-41 -45 134 0
134 33 25 0
-134 -33 25 0
134 33 -25 0
134 -33 -25 0
41 45 135 0
135 33 25 0
135 -33 25 0
-135 33 -25 0
135 -33 -25 0
-41 -45 136 0
136 33 25 0
136 -33 25 0
-136 33 -25 0
136 -33 -25 0
-41 45 137 0
137 33 25 0
137 -33 25 0
137 33 -25 0
-137 -33 -25 0
41 -45 138 0
138 33 25 0
138 -33 25 0
138 33 -25 0
-138 -33 -25 0
-46 33 139 0
-139 25 45 0
139 -25 45 0
139 25 -45 0
139 -25 -45 0
-46 -33 140 0
-140 25 45 0
140 -25 45 0
140 25 -45 0
140 -25 -45 0
-46 33 141 0
141 25 45 0
-141 -25 45 0
141 25 -45 0
141 -25 -45 0
46 -33 142 0
142 25 45 0
-142 -25 45 0
142 25 -45 0
142 -25 -45 0
-46 33 143 0
143 25 45 0
143 -25 45 0
-143 25 -45 0
143 -25 -45 0
46 -33 144 0
144 25 45 0
144 -25 45 0
-144 25 -45 0
144 -25 -45 0
46 33 145 0
145 25 45 0
145 -25 45 0
145 25 -45 0
-145 -25 -45 0
46 -33 146 0
146 25 45 0
146 -25 45 0
146 25 -45 0
-146 -25 -45 0
-42 46 147 0
-147 34 26 0
147 -34 26 0
147 34 -26 0
147 -34 -26 0
42 -46 148 0
-148 34 26 0
148 -34 26 0
148 34 -26 0
148 -34 -26 0
42 46 149 0
149 34 26 0
-149 -34 26 0
149 34 -26 0
149 -34 -26 0
-42 -46 150 0
150 34 26 0
-150 -34 26 0
150 34 -26 0
150 -34 -26 0
42 46 151 0
151 34 26 0
151 -34 26 0
-151 34 -26 0
151 -34 -26 0
-42 -46 152 0
152 34 26 0
152 -34 26 0
-152 34 -26 0
152 -34 -26 0
-42 46 153 0
153 34 26 0
153 -34 26 0
153 34 -26 0
-153 -34 -26 0
42 -46 154 0
154 34 26 0
154 -34 26 0
154 34 -26 0
-154 -34 -26 0
-47 34 155 0
-155 26 46 0
155 -26 46 0
155 26 -46 0
155 -26 -46 0
-47 -34 156 0
-156 26 46 0
156 -26 46 0
156 26 -46 0
156 -26 -46 0
-47 34 157 0
157 26 46 0
-157 -26 46 0
157 26 -46 0
157 -26 -46 0
47 -34 158 0
158 26 46 0
-158 -26 46 0
158 26 -46 0
158 -26 -46 0
-47 34 159 0
159 26 46 0
159 -26 46 0
-159 26 -46 0
159 -26 -46 0
47 -34 160 0
160 26 46 0
160 -26 46 0
-160 26 -46 0
160 -26 -46 0
47 34 161 0
161 26 46 0
161 -26 46 0
161 26 -46 0
-161 -26 -46 0
47 -34 162 0
162 26 46 0
162 -26 46 0
162 26 -46 0
-162 -26 -46 0
-43 47 163 0
-163 35 27 0
163 -35 27 0
163 35 -27 0
163 -35 -27 0
43 -47 164 0
-164 35 27 0
164 -35 27 0
164 35 -27 0
164 -35 -27 0
43 47 165 0
165 35 27 0
-165 -35 27 0
165 35 -27 0
165 -35 -27 0
-43 -47 166 0
166 35 27 0
-166 -35 27 0
166 35 -27 0
166 -35 -27 0
43 47 167 0
167 35 27 0
167 -35 27 0
-167 35 -27 0
167 -35 -27 0
-43 -47 168 0
168 35 27 0
168 -35 27 0
-168 35 -27 0
168 -35 -27 0
-43 47 169 0
169 35 27 0
169 -35 27 0
169 35 -27 0
-169 -35 -27 0
43 -47 170 0
170 35 27 0
170 -35 27 0
170 35 -27 0
-170 -35 -27 0
-48 35 171 0
-171 27 47 0
171 -27 47 0
171 27 -47 0
171 -27 -47 0
-48 -35 172 0
-172 27 47 0
172 -27 47 0
172 27 -47 0
172 -27 -47 0
-48 35 173 0
173 27 47 0
-173 -27 47 0
173 27 -47 0
173 -27 -47 0
48 -35 174 0
174 27 47 0
-174 -27 47 0
174 27 -47 0
174 -27 -47 0
-48 35 175 0
175 27 47 0
175 -27 47 0
-175 27 -47 0
175 -27 -47 0
48 -35 176 0
176 27 47 0
176 -27 47 0
-176 27 -47 0
176 -27 -47 0
48 35 177 0
177 27 47 0
177 -27 47 0
177 27 -47 0
-177 -27 -47 0
48 -35 178 0
178 27 47 0
178 -27 47 0
178 27 -47 0
-178 -27 -47 0
39 179 180 0
39 179 -180 0
39 -179 180 0
39 -179 -180 0
-40 181 182 0
-40 181 -182 0
-40 -181 182 0
-40 -181 -182 0
-41 183 184 0
-41 183 -184 0
-41 -183 184 0
-41 -183 -184 0
42 185 186 0
42 185 -186 0
42 -185 186 0
42 -185 -186 0
43 187 188 0
43 187 -188 0
43 -187 188 0
43 -187 -188 0
